194379
67,82,7,37,26,81,74,34,10,73,31,39,42,80,33,2,59,11,56,46,48,41,24,54,22,71,32,6,57,16,55,50,15,1,68,77,40,62,3,51,52,29,27,78,5,60,14,38,49,23,30,53,44,79,13,28,9,63,17,64,65,25,35,75,61,72,20,70,45,0,12,36,76,8,69,66,19,47,18,4,21,43,58
